\Problem name: 

Minimize
OBJROW: - x(1,1) - x(2,1) - x(3,1) - x(4,1) - x(1,2) - x(2,2) - x(3,2) - x(4,2) - x(1,3) - x(2,3)
 - x(3,3) - x(4,3) - x(1,4) - x(2,4) - x(3,4) - x(4,4) - x(1,5) - x(2,5) - x(3,5) - x(4,5)
Subject To
Bounds
 0 <= x(0,1) <= 1
 0 <= x(1,1) <= 1
 0 <= x(2,1) <= 1
 0 <= x(3,1) <= 1
 0 <= x(4,1) <= 1
 0 <= x(0,2) <= 1
 0 <= x(1,2) <= 1
 0 <= x(2,2) <= 1
 0 <= x(3,2) <= 1
 0 <= x(4,2) <= 1
 0 <= x(0,3) <= 1
 0 <= x(1,3) <= 1
 0 <= x(2,3) <= 1
 0 <= x(3,3) <= 1
 0 <= x(4,3) <= 1
 0 <= x(0,4) <= 1
 0 <= x(1,4) <= 1
 0 <= x(2,4) <= 1
 0 <= x(3,4) <= 1
 0 <= x(4,4) <= 1
 0 <= x(0,5) <= 1
 0 <= x(1,5) <= 1
 0 <= x(2,5) <= 1
 0 <= x(3,5) <= 1
 0 <= x(4,5) <= 1
Integers
x(0,1) x(1,1) x(2,1) x(3,1) x(4,1) x(0,2) x(1,2) x(2,2) x(3,2) x(4,2) 
x(0,3) x(1,3) x(2,3) x(3,3) x(4,3) x(0,4) x(1,4) x(2,4) x(3,4) x(4,4) 
x(0,5) x(1,5) x(2,5) x(3,5) x(4,5) 
End
